2	100	1
0	0	0	0	0	150	0	0	0
1	11	11	20	20	100	10	0	7
3	16	11	-20	20	100	10	8	0
4	-15	-15	-30	50	150	10	2	0
5	-10	-10	30	50	200	10	0	6
2	-10	-15	30	50	200	10	0	4
6	-15	-10	-30	50	200	10	5	0
7	11	16	-20	20	100	10	1	0
8	16	16	20	20	100	10	0	3
